439
0 2 1 48 46 47 49 50 51 82 83 84 185 148 186 229 280 340 373 374 380 390 391 398 395 396 397 392 394 393 383 381 382 371 370 372 341 342 343 283 282 227 228 281 225 226 438 434 435 436 437 433 402 407 408 410 409 424 425 423 426 429 432 431 421 422 411 412 406 405 389 388 378 379 375 376 347 345 344 346 348 349 350 352 351 353 354 355 357 356 358 292 291 290 289 288 287 339 286 285 284 279 231 230 224 187 188 52 53 54 55 81 80 79 78 77 85 86 76 75 74 109 110 111 146 147 144 184 189 190 183 191 182 181 180 179 178 177 176 158 157 156 155 154 153 152 150 149 142 151 141 140 139 138 137 159 160 174 175 200 199 198 197 196 195 194 193 192 220 219 218 217 216 215 214 213 212 211 210 209 249 247 246 245 244 243 242 241 240 239 238 237 236 235 234 233 232 221 222 223 272 273 274 275 276 277 278 293 294 295 296 297 298 299 332 333 334 335 336 337 338 359 369 360 361 362 363 364 365 368 367 377 384 385 386 387 400 399 415 414 413 420 419 418 430 428 427 417 416 404 403 401 366 331 302 301 300 271 270 269 268 267 266 265 264 305 304 303 329 330 328 327 326 325 324 323 322 321 320 319 318 317 316 315 314 313 312 311 310 309 308 307 306 263 262 261 260 259 258 257 256 255 253 254 248 251 252 250 208 207 206 205 204 202 201 203 173 172 171 170 169 167 168 165 166 164 163 162 161 133 134 135 136 123 125 126 128 129 130 131 132 127 98 97 96 95 94 17 18 19 67 68 101 91 92 93 99 100 124 122 121 120 118 117 115 119 116 114 102 113 112 143 145 108 107 106 105 104 103 87 88 89 90 69 70 71 64 65 66 21 20 23 22 24 63 73 72 62 25 26 27 28 29 30 31 61 60 59 58 57 56 35 34 33 32 16 15 14 13 12 11 36 37 38 41 43 45 44 42 40 39 10 9 8 7 6 5 4 3 
